open_stacks/sp4_1.sol
objective = 9;
s = [1, 3, 24, 4, 6, 8, 15, 16, 11, 25, 2, 19, 9, 21, 23, 14, 22, 5, 20, 7, 12, 18, 10, 17, 13];
